(set-info :status unknown)
(declare-const symbol_225 (_ BitVec 32))
(declare-const symbol_498 (_ BitVec 32))
(declare-const symbol_381 (_ BitVec 32))
(declare-const symbol_422 (_ BitVec 32))
(declare-const symbol_393 (_ BitVec 32))
(declare-const symbol_438 (_ BitVec 32))
(declare-const symbol_240 (_ BitVec 32))
(declare-const symbol_510 (_ BitVec 32))
(declare-const symbol_472 (_ BitVec 32))
(declare-const symbol_25 (_ BitVec 32))
(declare-const symbol_568 (_ BitVec 32))
(declare-const symbol_562 (_ BitVec 32))
(declare-const symbol_484 (_ BitVec 32))
(declare-const symbol_197 (_ BitVec 32))
(declare-const symbol_125 (_ BitVec 32))
(declare-const symbol_293 (_ BitVec 32))
(declare-const symbol_541 (_ BitVec 32))
(declare-const symbol_458 (_ BitVec 32))
(declare-const symbol_454 (_ BitVec 32))
(declare-const symbol_110 (_ BitVec 32))
(declare-const symbol_58 (_ BitVec 32))
(declare-const symbol_193 (_ BitVec 32))
(declare-const symbol_115 (_ BitVec 32))
(declare-const symbol_257 (_ BitVec 32))
(declare-const symbol_178 (_ BitVec 32))
(declare-const symbol_54 (_ BitVec 32))
(declare-const symbol_250 (_ BitVec 32))
(declare-const symbol_413 (_ BitVec 32))
(declare-const symbol_167 (_ BitVec 32))
(declare-const symbol_131 (_ BitVec 32))
(declare-const symbol_446 (_ BitVec 32))
(declare-const symbol_289 (_ BitVec 32))
(declare-const symbol_254 (_ BitVec 32))
(declare-const symbol_171 (_ BitVec 32))
(declare-const symbol_478 (_ BitVec 32))
(declare-const symbol_593 (_ BitVec 32))
(declare-const symbol_554 (_ BitVec 32))
(declare-const symbol_29 (_ BitVec 32))
(declare-const symbol_23 (_ BitVec 32))
(declare-const symbol_15 (_ BitVec 32))
(declare-const symbol_104 (_ BitVec 32))
(declare-const symbol_584 (_ BitVec 32))
(declare-const symbol_560 (_ BitVec 32))
(declare-const symbol_550 (_ BitVec 32))
(declare-const symbol_377 (_ BitVec 32))
(declare-const symbol_255 (_ BitVec 32))
(declare-const symbol_531 (_ BitVec 32))
(declare-const symbol_407 (_ BitVec 32))
(declare-const symbol_11 (_ BitVec 32))
(declare-const symbol_267 (_ BitVec 32))
(declare-const symbol_265 (_ BitVec 32))
(declare-const symbol_95 (_ BitVec 32))
(declare-const symbol_448 (_ BitVec 32))
(declare-const symbol_428 (_ BitVec 32))
(declare-const symbol_311 (_ BitVec 32))
(declare-const symbol_373 (_ BitVec 32))
(declare-const symbol_1 (_ BitVec 32))
(declare-const symbol_418 (_ BitVec 32))
(declare-const symbol_281 (_ BitVec 32))
(declare-const symbol_357 (_ BitVec 32))
(declare-const symbol_176 (_ BitVec 32))
(declare-const symbol_399 (_ BitVec 32))
(declare-const symbol_234 (_ BitVec 32))
(declare-const symbol_470 (_ BitVec 32))
(declare-const symbol_566 (_ BitVec 32))
(declare-const symbol_474 (_ BitVec 32))
(declare-const symbol_269 (_ BitVec 32))
(declare-const symbol_66 (_ BitVec 32))
(declare-const symbol_343 (_ BitVec 32))
(declare-const symbol_180 (_ BitVec 32))
(declare-const symbol_299 (_ BitVec 32))
(declare-const symbol_277 (_ BitVec 32))
(declare-const symbol_86 (_ BitVec 32))
(declare-const symbol_199 (_ BitVec 32))
(declare-const symbol_543 (_ BitVec 32))
(declare-const symbol_415 (_ BitVec 32))
(declare-const symbol_444 (_ BitVec 32))
(declare-const symbol_504 (_ BitVec 32))
(declare-const symbol_490 (_ BitVec 32))
(declare-const symbol_426 (_ BitVec 32))
(declare-const symbol_369 (_ BitVec 32))
(declare-const symbol_238 (_ BitVec 32))
(declare-const symbol_395 (_ BitVec 32))
(declare-const symbol_273 (_ BitVec 32))
(declare-const symbol_215 (_ BitVec 32))
(declare-const symbol_70 (_ BitVec 32))
(declare-const symbol_309 (_ BitVec 32))
(declare-const symbol_506 (_ BitVec 32))
(declare-const symbol_203 (_ BitVec 32))
(declare-const symbol_187 (_ BitVec 32))
(declare-const symbol_545 (_ BitVec 32))
(declare-const symbol_353 (_ BitVec 32))
(declare-const symbol_90 (_ BitVec 32))
(declare-const symbol_462 (_ BitVec 32))
(declare-const symbol_321 (_ BitVec 32))
(declare-const symbol_361 (_ BitVec 32))
(declare-const symbol_347 (_ BitVec 32))
(declare-const symbol_112 (_ BitVec 32))
(declare-const symbol_578 (_ BitVec 32))
(declare-const symbol_570 (_ BitVec 32))
(declare-const symbol_535 (_ BitVec 32))
(declare-const symbol_295 (_ BitVec 32))
(declare-const symbol_349 (_ BitVec 32))
(declare-const symbol_319 (_ BitVec 32))
(declare-const symbol_49 (_ BitVec 32))
(declare-const symbol_482 (_ BitVec 32))
(declare-const symbol_480 (_ BitVec 32))
(declare-const symbol_468 (_ BitVec 32))
(declare-const symbol_141 (_ BitVec 32))
(declare-const symbol_539 (_ BitVec 32))
(declare-const symbol_486 (_ BitVec 32))
(declare-const symbol_85 (_ BitVec 32))
(declare-const symbol_514 (_ BitVec 32))
(declare-const symbol_436 (_ BitVec 32))
(declare-const symbol_345 (_ BitVec 32))
(declare-const symbol_4 (_ BitVec 32))
(declare-const symbol_424 (_ BitVec 32))
(declare-const symbol_135 (_ BitVec 32))
(declare-const symbol_387 (_ BitVec 32))
(declare-const symbol_291 (_ BitVec 32))
(declare-const symbol_139 (_ BitVec 32))
(declare-const symbol_9 (_ BitVec 32))
(declare-const symbol_315 (_ BitVec 32))
(declare-const symbol_230 (_ BitVec 32))
(declare-const symbol_161 (_ BitVec 32))
(declare-const symbol_259 (_ BitVec 32))
(declare-const symbol_525 (_ BitVec 32))
(declare-const symbol_371 (_ BitVec 32))
(declare-const symbol_108 (_ BitVec 32))
(declare-const symbol_285 (_ BitVec 32))
(declare-const symbol_61 (_ BitVec 32))
(declare-const symbol_123 (_ BitVec 32))
(declare-const symbol_145 (_ BitVec 32))
(declare-const symbol_100 (_ BitVec 32))
(declare-const symbol_263 (_ BitVec 32))
(declare-const symbol_127 (_ BitVec 32))
(declare-const symbol_72 (_ BitVec 32))
(declare-const symbol_191 (_ BitVec 32))
(declare-const symbol_341 (_ BitVec 32))
(declare-const symbol_450 (_ BitVec 32))
(declare-const symbol_97 (_ BitVec 32))
(declare-const symbol_591 (_ BitVec 32))
(declare-const symbol_359 (_ BitVec 32))
(declare-const symbol_576 (_ BitVec 32))
(declare-const symbol_333 (_ BitVec 32))
(declare-const symbol_147 (_ BitVec 32))
(declare-const symbol_88 (_ BitVec 32))
(declare-const symbol_307 (_ BitVec 32))
(declare-const symbol_174 (_ BitVec 32))
(declare-const symbol_13 (_ BitVec 32))
(declare-const symbol_391 (_ BitVec 32))
(declare-const symbol_442 (_ BitVec 32))
(declare-const symbol_8 (_ BitVec 32))
(declare-const symbol_195 (_ BitVec 32))
(declare-const symbol_129 (_ BitVec 32))
(declare-const symbol_114 (_ BitVec 32))
(declare-const symbol_81 (_ BitVec 32))
(declare-const symbol_201 (_ BitVec 32))
(declare-const symbol_420 (_ BitVec 32))
(declare-const symbol_317 (_ BitVec 32))
(declare-const symbol_476 (_ BitVec 32))
(declare-const symbol_466 (_ BitVec 32))
(declare-const symbol_460 (_ BitVec 32))
(declare-const symbol_35 (_ BitVec 32))
(declare-const symbol_588 (_ BitVec 32))
(declare-const symbol_226 (_ BitVec 32))
(declare-const symbol_189 (_ BitVec 32))
(declare-const symbol_456 (_ BitVec 32))
(declare-const symbol_271 (_ BitVec 32))
(declare-const symbol_401 (_ BitVec 32))
(declare-const symbol_17 (_ BitVec 32))
(declare-const symbol_574 (_ BitVec 32))
(declare-const symbol_432 (_ BitVec 32))
(declare-const symbol_549 (_ BitVec 32))
(declare-const symbol_496 (_ BitVec 32))
(declare-const symbol_106 (_ BitVec 32))
(declare-const symbol_137 (_ BitVec 32))
(declare-const symbol_488 (_ BitVec 32))
(declare-const symbol_102 (_ BitVec 32))
(declare-const symbol_77 (_ BitVec 32))
(declare-const symbol_205 (_ BitVec 32))
(declare-const symbol_327 (_ BitVec 32))
(declare-const symbol_301 (_ BitVec 32))
(declare-const symbol_323 (_ BitVec 32))
(declare-const symbol_335 (_ BitVec 32))
(declare-const symbol_184 (_ BitVec 32))
(declare-const symbol_529 (_ BitVec 32))
(declare-const symbol_564 (_ BitVec 32))
(declare-const symbol_405 (_ BitVec 32))
(declare-const symbol_47 (_ BitVec 32))
(declare-const symbol_516 (_ BitVec 32))
(declare-const symbol_375 (_ BitVec 32))
(declare-const symbol_365 (_ BitVec 32))
(declare-const symbol_221 (_ BitVec 32))
(declare-const symbol_117 (_ BitVec 32))
(declare-const symbol_440 (_ BitVec 32))
(declare-const symbol_385 (_ BitVec 32))
(declare-const symbol_74 (_ BitVec 32))
(declare-const symbol_580 (_ BitVec 32))
(declare-const symbol_556 (_ BitVec 32))
(declare-const symbol_219 (_ BitVec 32))
(declare-const symbol_79 (_ BitVec 32))
(declare-const symbol_403 (_ BitVec 32))
(declare-const symbol_228 (_ BitVec 32))
(declare-const symbol_297 (_ BitVec 32))
(declare-const symbol_287 (_ BitVec 32))
(declare-const symbol_244 (_ BitVec 32))
(declare-const symbol_558 (_ BitVec 32))
(declare-const symbol_367 (_ BitVec 32))
(declare-const symbol_21 (_ BitVec 32))
(declare-const symbol_19 (_ BitVec 32))
(declare-const symbol_494 (_ BitVec 32))
(declare-const symbol_43 (_ BitVec 32))
(declare-const symbol_93 (_ BitVec 32))
(declare-const symbol_151 (_ BitVec 32))
(declare-const symbol_31 (_ BitVec 32))
(declare-const symbol_242 (_ BitVec 32))
(declare-const symbol_39 (_ BitVec 32))
(declare-const symbol_159 (_ BitVec 32))
(declare-const symbol_223 (_ BitVec 32))
(declare-const symbol_119 (_ BitVec 32))
(declare-const symbol_337 (_ BitVec 32))
(declare-const symbol_331 (_ BitVec 32))
(declare-const symbol_261 (_ BitVec 32))
(declare-const symbol_434 (_ BitVec 32))
(declare-const symbol_379 (_ BitVec 32))
(declare-const symbol_232 (_ BitVec 32))
(declare-const symbol_155 (_ BitVec 32))
(declare-const symbol_68 (_ BitVec 32))
(declare-const symbol_305 (_ BitVec 32))
(declare-const symbol_586 (_ BitVec 32))
(declare-const symbol_512 (_ BitVec 32))
(declare-const symbol_163 (_ BitVec 32))
(declare-const symbol_523 (_ BitVec 32))
(declare-const symbol_330 (_ BitVec 32))
(declare-const symbol_27 (_ BitVec 32))
(declare-const symbol_283 (_ BitVec 32))
(declare-const symbol_303 (_ BitVec 32))
(declare-const symbol_383 (_ BitVec 32))
(declare-const symbol_153 (_ BitVec 32))
(declare-const symbol_149 (_ BitVec 32))
(declare-const symbol_527 (_ BitVec 32))
(declare-const symbol_252 (_ BitVec 32))
(declare-const symbol_33 (_ BitVec 32))
(declare-const symbol_209 (_ BitVec 32))
(declare-const symbol_45 (_ BitVec 32))
(declare-const symbol_182 (_ BitVec 32))
(declare-const symbol_63 (_ BitVec 32))
(declare-const symbol_409 (_ BitVec 32))
(declare-const symbol_157 (_ BitVec 32))
(declare-const symbol_172 (_ BitVec 32))
(declare-const symbol_143 (_ BitVec 32))
(declare-const symbol_411 (_ BitVec 32))
(declare-const symbol_0 (_ BitVec 32))
(declare-const symbol_452 (_ BitVec 32))
(declare-const symbol_521 (_ BitVec 32))
(declare-const symbol_92 (_ BitVec 32))
(declare-const symbol_248 (_ BitVec 32))
(declare-const symbol_133 (_ BitVec 32))
(declare-const symbol_464 (_ BitVec 32))
(declare-const symbol_325 (_ BitVec 32))
(declare-const symbol_236 (_ BitVec 32))
(declare-const symbol_6 (_ BitVec 32))
(declare-const symbol_582 (_ BitVec 32))
(declare-const symbol_572 (_ BitVec 32))
(declare-const symbol_207 (_ BitVec 32))
(declare-const symbol_41 (_ BitVec 32))
(declare-const symbol_83 (_ BitVec 32))
(declare-const symbol_508 (_ BitVec 32))
(declare-const symbol_537 (_ BitVec 32))
(declare-const symbol_430 (_ BitVec 32))
(declare-const symbol_363 (_ BitVec 32))
(declare-const symbol_211 (_ BitVec 32))
(declare-const symbol_533 (_ BitVec 32))
(declare-const symbol_313 (_ BitVec 32))
(declare-const symbol_275 (_ BitVec 32))
(declare-const symbol_246 (_ BitVec 32))
(declare-const symbol_169 (_ BitVec 32))
(declare-const symbol_37 (_ BitVec 32))
(declare-const symbol_339 (_ BitVec 32))
(declare-const symbol_397 (_ BitVec 32))
(declare-const symbol_502 (_ BitVec 32))
(declare-const symbol_51 (_ BitVec 32))
(declare-const symbol_389 (_ BitVec 32))
(declare-const symbol_217 (_ BitVec 32))
(declare-const symbol_186 (_ BitVec 32))
(declare-const symbol_121 (_ BitVec 32))
(declare-const symbol_500 (_ BitVec 32))
(declare-const symbol_552 (_ BitVec 32))
(declare-const symbol_279 (_ BitVec 32))
(declare-const symbol_165 (_ BitVec 32))
(declare-const symbol_56 (_ BitVec 32))
(declare-const symbol_492 (_ BitVec 32))
(declare-const symbol_547 (_ BitVec 32))
(declare-const symbol_519 (_ BitVec 32))
(declare-const symbol_355 (_ BitVec 32))
(declare-const symbol_351 (_ BitVec 32))
(declare-const symbol_213 (_ BitVec 32))
(assert (not (= symbol_593 (_ bv6 32))))
(assert (not (not (= symbol_593 (_ bv7 32)))))
(assert (not (not (= symbol_591 (_ bv7 32)))))
(assert (not (not (= symbol_588 (_ bv7 32)))))
(assert (not (not (= symbol_586 (_ bv7 32)))))
(assert (not (not (= symbol_584 (_ bv7 32)))))
(assert (not (not (= symbol_582 (_ bv7 32)))))
(assert (not (not (= symbol_580 (_ bv7 32)))))
(assert (not (not (= symbol_578 (_ bv7 32)))))
(assert (not (not (= symbol_576 (_ bv7 32)))))
(assert (not (not (= symbol_574 (_ bv7 32)))))
(assert (not (not (= symbol_572 (_ bv7 32)))))
(assert (not (not (= symbol_570 (_ bv7 32)))))
(assert (not (not (= symbol_568 (_ bv7 32)))))
(assert (not (not (= symbol_566 (_ bv7 32)))))
(assert (not (not (= symbol_564 (_ bv7 32)))))
(assert (not (not (= symbol_562 (_ bv7 32)))))
(assert (not (not (= symbol_560 (_ bv7 32)))))
(assert (not (not (= symbol_558 (_ bv7 32)))))
(assert (not (not (= symbol_556 (_ bv7 32)))))
(assert (not (not (= symbol_554 (_ bv7 32)))))
(assert (not (not (= symbol_552 (_ bv7 32)))))
(assert (not (not (= symbol_550 (_ bv7 32)))))
(assert (not (not (= symbol_549 (_ bv7 32)))))
(assert (not (not (= symbol_547 (_ bv7 32)))))
(assert (not (not (= symbol_545 (_ bv7 32)))))
(assert (not (not (= symbol_543 (_ bv7 32)))))
(assert (not (not (= symbol_541 (_ bv7 32)))))
(assert (not (not (= symbol_539 (_ bv7 32)))))
(assert (not (not (= symbol_537 (_ bv7 32)))))
(assert (not (not (= symbol_535 (_ bv7 32)))))
(assert (not (not (= symbol_533 (_ bv7 32)))))
(assert (not (not (= symbol_531 (_ bv7 32)))))
(assert (not (not (= symbol_529 (_ bv7 32)))))
(assert (not (not (= symbol_527 (_ bv7 32)))))
(assert (not (not (= symbol_525 (_ bv7 32)))))
(assert (not (not (= symbol_523 (_ bv7 32)))))
(assert (not (not (= symbol_521 (_ bv7 32)))))
(assert (not (not (= symbol_519 (_ bv7 32)))))
(assert (not (not (= symbol_516 (_ bv7 32)))))
(assert (not (not (= symbol_514 (_ bv7 32)))))
(assert (not (not (= symbol_512 (_ bv7 32)))))
(assert (not (not (= symbol_510 (_ bv7 32)))))
(assert (not (not (= symbol_508 (_ bv7 32)))))
(assert (not (not (= symbol_506 (_ bv7 32)))))
(assert (not (not (= symbol_504 (_ bv7 32)))))
(assert (not (not (= symbol_502 (_ bv7 32)))))
(assert (not (not (= symbol_500 (_ bv7 32)))))
(assert (not (not (= symbol_498 (_ bv7 32)))))
(assert (not (not (= symbol_496 (_ bv7 32)))))
(assert (not (not (= symbol_494 (_ bv7 32)))))
(assert (not (not (= symbol_492 (_ bv7 32)))))
(assert (not (not (= symbol_490 (_ bv7 32)))))
(assert (not (not (= symbol_488 (_ bv7 32)))))
(assert (not (not (= symbol_486 (_ bv7 32)))))
(assert (not (not (= symbol_484 (_ bv7 32)))))
(assert (not (not (= symbol_482 (_ bv7 32)))))
(assert (not (not (= symbol_480 (_ bv7 32)))))
(assert (not (not (= symbol_478 (_ bv7 32)))))
(assert (not (not (= symbol_476 (_ bv7 32)))))
(assert (not (not (= symbol_474 (_ bv7 32)))))
(assert (not (not (= symbol_472 (_ bv7 32)))))
(assert (not (not (= symbol_470 (_ bv7 32)))))
(assert (not (not (= symbol_468 (_ bv7 32)))))
(assert (not (not (= symbol_466 (_ bv7 32)))))
(assert (not (not (= symbol_464 (_ bv7 32)))))
(assert (not (not (= symbol_462 (_ bv7 32)))))
(assert (not (not (= symbol_460 (_ bv7 32)))))
(assert (not (not (= symbol_458 (_ bv7 32)))))
(assert (not (not (= symbol_456 (_ bv7 32)))))
(assert (not (not (= symbol_454 (_ bv7 32)))))
(assert (not (not (= symbol_452 (_ bv7 32)))))
(assert (not (not (= symbol_450 (_ bv7 32)))))
(assert (not (not (= symbol_448 (_ bv7 32)))))
(assert (not (not (= symbol_446 (_ bv7 32)))))
(assert (not (not (= symbol_444 (_ bv7 32)))))
(assert (not (not (= symbol_442 (_ bv7 32)))))
(assert (not (not (= symbol_440 (_ bv7 32)))))
(assert (not (not (= symbol_438 (_ bv7 32)))))
(assert (not (not (= symbol_436 (_ bv7 32)))))
(assert (not (not (= symbol_434 (_ bv7 32)))))
(assert (not (not (= symbol_432 (_ bv7 32)))))
(assert (not (not (= symbol_430 (_ bv7 32)))))
(assert (not (not (= symbol_428 (_ bv7 32)))))
(assert (not (not (= symbol_426 (_ bv7 32)))))
(assert (not (not (= symbol_424 (_ bv7 32)))))
(assert (not (not (= symbol_422 (_ bv7 32)))))
(assert (not (not (= symbol_420 (_ bv7 32)))))
(assert (not (not (= symbol_418 (_ bv7 32)))))
(assert (not (not (= symbol_415 (_ bv7 32)))))
(assert (not (not (= symbol_413 (_ bv7 32)))))
(assert (not (not (= symbol_411 (_ bv7 32)))))
(assert (not (not (= symbol_409 (_ bv7 32)))))
(assert (not (not (= symbol_407 (_ bv7 32)))))
(assert (not (not (= symbol_405 (_ bv7 32)))))
(assert (not (not (= symbol_403 (_ bv7 32)))))
(assert (not (not (= symbol_401 (_ bv7 32)))))
(assert (not (not (= symbol_399 (_ bv7 32)))))
(assert (not (not (= symbol_397 (_ bv7 32)))))
(assert (not (not (= symbol_395 (_ bv7 32)))))
(assert (not (not (= symbol_393 (_ bv7 32)))))
(assert (not (not (= symbol_391 (_ bv7 32)))))
(assert (not (not (= symbol_389 (_ bv7 32)))))
(assert (not (not (= symbol_387 (_ bv7 32)))))
(assert (not (not (= symbol_385 (_ bv7 32)))))
(assert (not (not (= symbol_383 (_ bv7 32)))))
(assert (not (not (= symbol_381 (_ bv7 32)))))
(assert (not (not (= symbol_379 (_ bv7 32)))))
(assert (not (not (= symbol_377 (_ bv7 32)))))
(assert (not (not (= symbol_375 (_ bv7 32)))))
(assert (not (not (= symbol_373 (_ bv7 32)))))
(assert (not (not (= symbol_371 (_ bv7 32)))))
(assert (not (not (= symbol_369 (_ bv7 32)))))
(assert (not (not (= symbol_367 (_ bv7 32)))))
(assert (not (not (= symbol_365 (_ bv7 32)))))
(assert (not (not (= symbol_363 (_ bv7 32)))))
(assert (not (not (= symbol_361 (_ bv7 32)))))
(assert (not (not (= symbol_359 (_ bv7 32)))))
(assert (not (not (= symbol_357 (_ bv7 32)))))
(assert (not (not (= symbol_355 (_ bv7 32)))))
(assert (not (not (= symbol_353 (_ bv7 32)))))
(assert (not (not (= symbol_351 (_ bv7 32)))))
(assert (not (not (= symbol_349 (_ bv7 32)))))
(assert (not (not (= symbol_347 (_ bv7 32)))))
(assert (not (not (= symbol_345 (_ bv7 32)))))
(assert (not (not (= symbol_343 (_ bv7 32)))))
(assert (not (not (= symbol_341 (_ bv7 32)))))
(assert (not (not (= symbol_339 (_ bv7 32)))))
(assert (not (not (= symbol_337 (_ bv7 32)))))
(assert (not (not (= symbol_335 (_ bv7 32)))))
(assert (not (not (= symbol_333 (_ bv7 32)))))
(assert (not (not (= symbol_331 (_ bv7 32)))))
(assert (not (not (= symbol_330 (_ bv7 32)))))
(assert (not (not (= symbol_327 (_ bv7 32)))))
(assert (not (not (= symbol_325 (_ bv7 32)))))
(assert (not (not (= symbol_323 (_ bv7 32)))))
(assert (not (not (= symbol_321 (_ bv7 32)))))
(assert (not (not (= symbol_319 (_ bv7 32)))))
(assert (not (not (= symbol_317 (_ bv7 32)))))
(assert (not (not (= symbol_315 (_ bv7 32)))))
(assert (not (not (= symbol_313 (_ bv7 32)))))
(assert (not (not (= symbol_311 (_ bv7 32)))))
(assert (not (not (= symbol_309 (_ bv7 32)))))
(assert (not (not (= symbol_307 (_ bv7 32)))))
(assert (not (not (= symbol_305 (_ bv7 32)))))
(assert (not (not (= symbol_303 (_ bv7 32)))))
(assert (not (not (= symbol_301 (_ bv7 32)))))
(assert (not (not (= symbol_299 (_ bv7 32)))))
(assert (not (not (= symbol_297 (_ bv7 32)))))
(assert (not (not (= symbol_295 (_ bv7 32)))))
(assert (not (not (= symbol_293 (_ bv7 32)))))
(assert (not (not (= symbol_291 (_ bv7 32)))))
(assert (not (not (= symbol_289 (_ bv7 32)))))
(assert (not (not (= symbol_287 (_ bv7 32)))))
(assert (not (not (= symbol_285 (_ bv7 32)))))
(assert (not (not (= symbol_283 (_ bv7 32)))))
(assert (not (not (= symbol_281 (_ bv7 32)))))
(assert (not (not (= symbol_279 (_ bv7 32)))))
(assert (not (not (= symbol_277 (_ bv7 32)))))
(assert (not (not (= symbol_275 (_ bv7 32)))))
(assert (not (not (= symbol_273 (_ bv7 32)))))
(assert (not (not (= symbol_271 (_ bv7 32)))))
(assert (not (not (= symbol_269 (_ bv7 32)))))
(assert (not (not (= symbol_267 (_ bv7 32)))))
(assert (not (not (= symbol_265 (_ bv7 32)))))
(assert (not (not (= symbol_263 (_ bv7 32)))))
(assert (not (not (= symbol_261 (_ bv7 32)))))
(assert (not (not (= symbol_259 (_ bv7 32)))))
(assert (not (not (= symbol_257 (_ bv7 32)))))
(assert (not (not (= symbol_255 (_ bv7 32)))))
(assert (not (not (= symbol_254 (_ bv7 32)))))
(assert (not (not (= symbol_252 (_ bv7 32)))))
(assert (not (not (= symbol_250 (_ bv7 32)))))
(assert (not (not (= symbol_248 (_ bv7 32)))))
(assert (not (not (= symbol_246 (_ bv7 32)))))
(assert (not (not (= symbol_244 (_ bv7 32)))))
(assert (not (not (= symbol_242 (_ bv7 32)))))
(assert (not (not (= symbol_240 (_ bv7 32)))))
(assert (not (not (= symbol_238 (_ bv7 32)))))
(assert (not (not (= symbol_236 (_ bv7 32)))))
(assert (not (not (= symbol_234 (_ bv7 32)))))
(assert (not (not (= symbol_232 (_ bv7 32)))))
(assert (not (not (= symbol_230 (_ bv7 32)))))
(assert (not (not (= symbol_228 (_ bv7 32)))))
(assert (not (not (= symbol_226 (_ bv7 32)))))
(assert (not (not (= symbol_225 (_ bv7 32)))))
(assert (not (not (= symbol_223 (_ bv7 32)))))
(assert (not (not (= symbol_221 (_ bv7 32)))))
(assert (not (not (= symbol_219 (_ bv7 32)))))
(assert (not (not (= symbol_217 (_ bv7 32)))))
(assert (not (not (= symbol_215 (_ bv7 32)))))
(assert (not (not (= symbol_213 (_ bv7 32)))))
(assert (not (not (= symbol_211 (_ bv7 32)))))
(assert (not (not (= symbol_209 (_ bv7 32)))))
(assert (not (not (= symbol_207 (_ bv7 32)))))
(assert (not (not (= symbol_205 (_ bv7 32)))))
(assert (not (not (= symbol_203 (_ bv7 32)))))
(assert (not (not (= symbol_201 (_ bv7 32)))))
(assert (not (not (= symbol_199 (_ bv7 32)))))
(assert (not (not (= symbol_197 (_ bv7 32)))))
(assert (not (not (= symbol_195 (_ bv7 32)))))
(assert (not (not (= symbol_193 (_ bv7 32)))))
(assert (not (not (= symbol_191 (_ bv7 32)))))
(assert (not (not (= symbol_189 (_ bv7 32)))))
(assert (not (not (= symbol_187 (_ bv7 32)))))
(assert (not (not (= symbol_186 (_ bv7 32)))))
(assert (not (not (= symbol_184 (_ bv7 32)))))
(assert (not (not (= symbol_182 (_ bv7 32)))))
(assert (not (not (= symbol_180 (_ bv7 32)))))
(assert (not (not (= symbol_178 (_ bv7 32)))))
(assert (not (not (= symbol_176 (_ bv7 32)))))
(assert (not (not (= symbol_174 (_ bv7 32)))))
(assert (not (not (= symbol_172 (_ bv7 32)))))
(assert (not (not (= symbol_171 (_ bv7 32)))))
(assert (not (not (= symbol_169 (_ bv7 32)))))
(assert (not (not (= symbol_167 (_ bv7 32)))))
(assert (not (not (= symbol_165 (_ bv7 32)))))
(assert (not (not (= symbol_163 (_ bv7 32)))))
(assert (not (not (= symbol_161 (_ bv7 32)))))
(assert (not (not (= symbol_159 (_ bv7 32)))))
(assert (not (not (= symbol_157 (_ bv7 32)))))
(assert (not (not (= symbol_155 (_ bv7 32)))))
(assert (not (not (= symbol_153 (_ bv7 32)))))
(assert (not (not (= symbol_151 (_ bv7 32)))))
(assert (not (not (= symbol_149 (_ bv7 32)))))
(assert (not (not (= symbol_147 (_ bv7 32)))))
(assert (not (not (= symbol_145 (_ bv7 32)))))
(assert (not (not (= symbol_143 (_ bv7 32)))))
(assert (not (not (= symbol_141 (_ bv7 32)))))
(assert (not (not (= symbol_139 (_ bv7 32)))))
(assert (not (not (= symbol_137 (_ bv7 32)))))
(assert (not (not (= symbol_135 (_ bv7 32)))))
(assert (not (not (= symbol_133 (_ bv7 32)))))
(assert (not (not (= symbol_131 (_ bv7 32)))))
(assert (not (not (= symbol_129 (_ bv7 32)))))
(assert (not (not (= symbol_127 (_ bv7 32)))))
(assert (not (not (= symbol_125 (_ bv7 32)))))
(assert (not (not (= symbol_123 (_ bv7 32)))))
(assert (not (not (= symbol_121 (_ bv7 32)))))
(assert (not (not (= symbol_119 (_ bv7 32)))))
(assert (not (not (= symbol_117 (_ bv7 32)))))
(assert (not (not (= symbol_115 (_ bv7 32)))))
(assert (not (not (= symbol_114 (_ bv7 32)))))
(assert (not (not (= symbol_112 (_ bv7 32)))))
(assert (not (not (= symbol_110 (_ bv7 32)))))
(assert (not (not (= symbol_108 (_ bv7 32)))))
(assert (not (not (= symbol_106 (_ bv7 32)))))
(assert (not (not (= symbol_104 (_ bv7 32)))))
(assert (not (not (= symbol_102 (_ bv7 32)))))
(assert (not (not (= symbol_100 (_ bv7 32)))))
(assert (not (not (= symbol_97 (_ bv7 32)))))
(assert (not (not (= symbol_95 (_ bv7 32)))))
(assert (not (not (= symbol_93 (_ bv7 32)))))
(assert (not (not (= symbol_92 (_ bv7 32)))))
(assert (not (not (= symbol_90 (_ bv7 32)))))
(assert (not (not (= symbol_88 (_ bv7 32)))))
(assert (not (not (= symbol_86 (_ bv7 32)))))
(assert (not (not (= symbol_85 (_ bv7 32)))))
(assert (not (not (= symbol_83 (_ bv7 32)))))
(assert (not (not (= symbol_81 (_ bv7 32)))))
(assert (not (not (= symbol_79 (_ bv7 32)))))
(assert (not (not (= symbol_77 (_ bv7 32)))))
(assert (not (not (= symbol_74 (_ bv7 32)))))
(assert (not (not (= symbol_72 (_ bv7 32)))))
(assert (not (not (= symbol_70 (_ bv7 32)))))
(assert (not (not (= symbol_68 (_ bv7 32)))))
(assert (not (not (= symbol_66 (_ bv7 32)))))
(assert (not (not (= symbol_63 (_ bv7 32)))))
(assert (not (not (= symbol_61 (_ bv7 32)))))
(assert (not (not (= symbol_58 (_ bv7 32)))))
(assert (not (not (= symbol_56 (_ bv7 32)))))
(assert (not (not (= symbol_54 (_ bv7 32)))))
(assert (not (not (= symbol_51 (_ bv7 32)))))
(assert (not (not (= symbol_49 (_ bv7 32)))))
(assert (not (not (= symbol_47 (_ bv7 32)))))
(assert (not (not (= symbol_45 (_ bv7 32)))))
(assert (not (not (= symbol_43 (_ bv7 32)))))
(assert (not (not (= symbol_41 (_ bv7 32)))))
(assert (not (not (= symbol_39 (_ bv7 32)))))
(assert (not (not (= symbol_37 (_ bv7 32)))))
(assert (not (not (= symbol_35 (_ bv7 32)))))
(assert (not (not (= symbol_33 (_ bv7 32)))))
(assert (not (not (= symbol_31 (_ bv7 32)))))
(assert (not (not (= symbol_29 (_ bv7 32)))))
(assert (not (not (= symbol_27 (_ bv7 32)))))
(assert (not (not (= symbol_25 (_ bv7 32)))))
(assert (not (not (= symbol_23 (_ bv7 32)))))
(assert (not (not (= symbol_21 (_ bv7 32)))))
(assert (not (not (= symbol_19 (_ bv7 32)))))
(assert (not (not (= symbol_17 (_ bv7 32)))))
(assert (not (not (= symbol_15 (_ bv7 32)))))
(assert (not (not (= symbol_13 (_ bv7 32)))))
(assert (not (not (= symbol_11 (_ bv7 32)))))
(assert (not (not (= symbol_9 (_ bv7 32)))))
(assert (not (not (= symbol_8 (_ bv7 32)))))
(assert (not (not (= symbol_6 (_ bv7 32)))))
(assert (not (not (= symbol_4 (_ bv7 32)))))
(assert (not (not (= symbol_1 (_ bv7 32)))))
(assert (not (not (= symbol_0 (_ bv7 32)))))
(check-sat)